30 3000
1 495
2 493
3 485
4 478
5 477
6 462
7 461
8 459
9 456
10 451
11 429
12 426
13 414
14 405
15 391
16 378
17 375
18 371
19 369
20 368
21 367
22 361
23 357
24 354
25 347
26 345
27 332
28 316
29 298
30 297
